c description: Tseitin formula on Random 5-regular graph of 90 vertices, with odd charge
c generator: CNFgen (0.9.0)
c copyright: (C) 2012-2020 Massimo Lauria <massimo.lauria@uniroma1.it>
c url: https://massimolauria.net/cnfgen
c random seed: 1
c command line: cnfgen --seed 1 tseitin randomodd gnd 90 5
c
p cnf 225 1440
1 2 3 4 -5 0
1 2 3 -4 5 0
1 2 -3 4 5 0
1 2 -3 -4 -5 0
1 -2 3 4 5 0
1 -2 3 -4 -5 0
1 -2 -3 4 -5 0
1 -2 -3 -4 5 0
-1 2 3 4 5 0
-1 2 3 -4 -5 0
-1 2 -3 4 -5 0
-1 2 -3 -4 5 0
-1 -2 3 4 -5 0
-1 -2 3 -4 5 0
-1 -2 -3 4 5 0
-1 -2 -3 -4 -5 0
6 7 8 9 -10 0
6 7 8 -9 10 0
6 7 -8 9 10 0
6 7 -8 -9 -10 0
6 -7 8 9 10 0
6 -7 8 -9 -10 0
6 -7 -8 9 -10 0
6 -7 -8 -9 10 0
-6 7 8 9 10 0
-6 7 8 -9 -10 0
-6 7 -8 9 -10 0
-6 7 -8 -9 10 0
-6 -7 8 9 -10 0
-6 -7 8 -9 10 0
-6 -7 -8 9 10 0
-6 -7 -8 -9 -10 0
1 11 12 13 14 0
1 11 12 -13 -14 0
1 11 -12 13 -14 0
1 11 -12 -13 14 0
1 -11 12 13 -14 0
1 -11 12 -13 14 0
1 -11 -12 13 14 0
1 -11 -12 -13 -14 0
-1 11 12 13 -14 0
-1 11 12 -13 14 0
-1 11 -12 13 14 0
-1 11 -12 -13 -14 0
-1 -11 12 13 14 0
-1 -11 12 -13 -14 0
-1 -11 -12 13 -14 0
-1 -11 -12 -13 14 0
15 16 17 18 -19 0
15 16 17 -18 19 0
15 16 -17 18 19 0
15 16 -17 -18 -19 0
15 -16 17 18 19 0
15 -16 17 -18 -19 0
15 -16 -17 18 -19 0
15 -16 -17 -18 19 0
-15 16 17 18 19 0
-15 16 17 -18 -19 0
-15 16 -17 18 -19 0
-15 16 -17 -18 19 0
-15 -16 17 18 -19 0
-15 -16 17 -18 19 0
-15 -16 -17 18 19 0
-15 -16 -17 -18 -19 0
20 21 22 23 24 0
20 21 22 -23 -24 0
20 21 -22 23 -24 0
20 21 -22 -23 24 0
20 -21 22 23 -24 0
20 -21 22 -23 24 0
20 -21 -22 23 24 0
20 -21 -22 -23 -24 0
-20 21 22 23 -24 0
-20 21 22 -23 24 0
-20 21 -22 23 24 0
-20 21 -22 -23 -24 0
-20 -21 22 23 24 0
-20 -21 22 -23 -24 0
-20 -21 -22 23 -24 0
-20 -21 -22 -23 24 0
25 26 27 28 29 0
25 26 27 -28 -29 0
25 26 -27 28 -29 0
25 26 -27 -28 29 0
25 -26 27 28 -29 0
25 -26 27 -28 29 0
25 -26 -27 28 29 0
25 -26 -27 -28 -29 0
-25 26 27 28 -29 0
-25 26 27 -28 29 0
-25 26 -27 28 29 0
-25 26 -27 -28 -29 0
-25 -26 27 28 29 0
-25 -26 27 -28 -29 0
-25 -26 -27 28 -29 0
-25 -26 -27 -28 29 0
30 31 32 33 34 0
30 31 32 -33 -34 0
30 31 -32 33 -34 0
30 31 -32 -33 34 0
30 -31 32 33 -34 0
30 -31 32 -33 34 0
30 -31 -32 33 34 0
30 -31 -32 -33 -34 0
-30 31 32 33 -34 0
-30 31 32 -33 34 0
-30 31 -32 33 34 0
-30 31 -32 -33 -34 0
-30 -31 32 33 34 0
-30 -31 32 -33 -34 0
-30 -31 -32 33 -34 0
-30 -31 -32 -33 34 0
35 36 37 38 39 0
35 36 37 -38 -39 0
35 36 -37 38 -39 0
35 36 -37 -38 39 0
35 -36 37 38 -39 0
35 -36 37 -38 39 0
35 -36 -37 38 39 0
35 -36 -37 -38 -39 0
-35 36 37 38 -39 0
-35 36 37 -38 39 0
-35 36 -37 38 39 0
-35 36 -37 -38 -39 0
-35 -36 37 38 39 0
-35 -36 37 -38 -39 0
-35 -36 -37 38 -39 0
-35 -36 -37 -38 39 0
15 40 41 42 -43 0
15 40 41 -42 43 0
15 40 -41 42 43 0
15 40 -41 -42 -43 0
15 -40 41 42 43 0
15 -40 41 -42 -43 0
15 -40 -41 42 -43 0
15 -40 -41 -42 43 0
-15 40 41 42 43 0
-15 40 41 -42 -43 0
-15 40 -41 42 -43 0
-15 40 -41 -42 43 0
-15 -40 41 42 -43 0
-15 -40 41 -42 43 0
-15 -40 -41 42 43 0
-15 -40 -41 -42 -43 0
44 45 46 47 -48 0
44 45 46 -47 48 0
44 45 -46 47 48 0
44 45 -46 -47 -48 0
44 -45 46 47 48 0
44 -45 46 -47 -48 0
44 -45 -46 47 -48 0
44 -45 -46 -47 48 0
-44 45 46 47 48 0
-44 45 46 -47 -48 0
-44 45 -46 47 -48 0
-44 45 -46 -47 48 0
-44 -45 46 47 -48 0
-44 -45 46 -47 48 0
-44 -45 -46 47 48 0
-44 -45 -46 -47 -48 0
6 49 50 51 52 0
6 49 50 -51 -52 0
6 49 -50 51 -52 0
6 49 -50 -51 52 0
6 -49 50 51 -52 0
6 -49 50 -51 52 0
6 -49 -50 51 52 0
6 -49 -50 -51 -52 0
-6 49 50 51 -52 0
-6 49 50 -51 52 0
-6 49 -50 51 52 0
-6 49 -50 -51 -52 0
-6 -49 50 51 52 0
-6 -49 50 -51 -52 0
-6 -49 -50 51 -52 0
-6 -49 -50 -51 52 0
53 54 55 56 -57 0
53 54 55 -56 57 0
53 54 -55 56 57 0
53 54 -55 -56 -57 0
53 -54 55 56 57 0
53 -54 55 -56 -57 0
53 -54 -55 56 -57 0
53 -54 -55 -56 57 0
-53 54 55 56 57 0
-53 54 55 -56 -57 0
-53 54 -55 56 -57 0
-53 54 -55 -56 57 0
-53 -54 55 56 -57 0
-53 -54 55 -56 57 0
-53 -54 -55 56 57 0
-53 -54 -55 -56 -57 0
58 59 60 61 62 0
58 59 60 -61 -62 0
58 59 -60 61 -62 0
58 59 -60 -61 62 0
58 -59 60 61 -62 0
58 -59 60 -61 62 0
58 -59 -60 61 62 0
58 -59 -60 -61 -62 0
-58 59 60 61 -62 0
-58 59 60 -61 62 0
-58 59 -60 61 62 0
-58 59 -60 -61 -62 0
-58 -59 60 61 62 0
-58 -59 60 -61 -62 0
-58 -59 -60 61 -62 0
-58 -59 -60 -61 62 0
49 63 64 65 66 0
49 63 64 -65 -66 0
49 63 -64 65 -66 0
49 63 -64 -65 66 0
49 -63 64 65 -66 0
49 -63 64 -65 66 0
49 -63 -64 65 66 0
49 -63 -64 -65 -66 0
-49 63 64 65 -66 0
-49 63 64 -65 66 0
-49 63 -64 65 66 0
-49 63 -64 -65 -66 0
-49 -63 64 65 66 0
-49 -63 64 -65 -66 0
-49 -63 -64 65 -66 0
-49 -63 -64 -65 66 0
50 53 67 68 -69 0
50 53 67 -68 69 0
50 53 -67 68 69 0
50 53 -67 -68 -69 0
50 -53 67 68 69 0
50 -53 67 -68 -69 0
50 -53 -67 68 -69 0
50 -53 -67 -68 69 0
-50 53 67 68 69 0
-50 53 67 -68 -69 0
-50 53 -67 68 -69 0
-50 53 -67 -68 69 0
-50 -53 67 68 -69 0
-50 -53 67 -68 69 0
-50 -53 -67 68 69 0
-50 -53 -67 -68 -69 0
70 71 72 73 74 0
70 71 72 -73 -74 0
70 71 -72 73 -74 0
70 71 -72 -73 74 0
70 -71 72 73 -74 0
70 -71 72 -73 74 0
70 -71 -72 73 74 0
70 -71 -72 -73 -74 0
-70 71 72 73 -74 0
-70 71 72 -73 74 0
-70 71 -72 73 74 0
-70 71 -72 -73 -74 0
-70 -71 72 73 74 0
-70 -71 72 -73 -74 0
-70 -71 -72 73 -74 0
-70 -71 -72 -73 74 0
75 76 77 78 79 0
75 76 77 -78 -79 0
75 76 -77 78 -79 0
75 76 -77 -78 79 0
75 -76 77 78 -79 0
75 -76 77 -78 79 0
75 -76 -77 78 79 0
75 -76 -77 -78 -79 0
-75 76 77 78 -79 0
-75 76 77 -78 79 0
-75 76 -77 78 79 0
-75 76 -77 -78 -79 0
-75 -76 77 78 79 0
-75 -76 77 -78 -79 0
-75 -76 -77 78 -79 0
-75 -76 -77 -78 79 0
80 81 82 83 -84 0
80 81 82 -83 84 0
80 81 -82 83 84 0
80 81 -82 -83 -84 0
80 -81 82 83 84 0
80 -81 82 -83 -84 0
80 -81 -82 83 -84 0
80 -81 -82 -83 84 0
-80 81 82 83 84 0
-80 81 82 -83 -84 0
-80 81 -82 83 -84 0
-80 81 -82 -83 84 0
-80 -81 82 83 -84 0
-80 -81 82 -83 84 0
-80 -81 -82 83 84 0
-80 -81 -82 -83 -84 0
30 85 86 87 -88 0
30 85 86 -87 88 0
30 85 -86 87 88 0
30 85 -86 -87 -88 0
30 -85 86 87 88 0
30 -85 86 -87 -88 0
30 -85 -86 87 -88 0
30 -85 -86 -87 88 0
-30 85 86 87 88 0
-30 85 86 -87 -88 0
-30 85 -86 87 -88 0
-30 85 -86 -87 88 0
-30 -85 86 87 -88 0
-30 -85 86 -87 88 0
-30 -85 -86 87 88 0
-30 -85 -86 -87 -88 0
20 89 90 91 92 0
20 89 90 -91 -92 0
20 89 -90 91 -92 0
20 89 -90 -91 92 0
20 -89 90 91 -92 0
20 -89 90 -91 92 0
20 -89 -90 91 92 0
20 -89 -90 -91 -92 0
-20 89 90 91 -92 0
-20 89 90 -91 92 0
-20 89 -90 91 92 0
-20 89 -90 -91 -92 0
-20 -89 90 91 92 0
-20 -89 90 -91 -92 0
-20 -89 -90 91 -92 0
-20 -89 -90 -91 92 0
58 93 94 95 -96 0
58 93 94 -95 96 0
58 93 -94 95 96 0
58 93 -94 -95 -96 0
58 -93 94 95 96 0
58 -93 94 -95 -96 0
58 -93 -94 95 -96 0
58 -93 -94 -95 96 0
-58 93 94 95 96 0
-58 93 94 -95 -96 0
-58 93 -94 95 -96 0
-58 93 -94 -95 96 0
-58 -93 94 95 -96 0
-58 -93 94 -95 96 0
-58 -93 -94 95 96 0
-58 -93 -94 -95 -96 0
75 97 98 99 -100 0
75 97 98 -99 100 0
75 97 -98 99 100 0
75 97 -98 -99 -100 0
75 -97 98 99 100 0
75 -97 98 -99 -100 0
75 -97 -98 99 -100 0
75 -97 -98 -99 100 0
-75 97 98 99 100 0
-75 97 98 -99 -100 0
-75 97 -98 99 -100 0
-75 97 -98 -99 100 0
-75 -97 98 99 -100 0
-75 -97 98 -99 100 0
-75 -97 -98 99 100 0
-75 -97 -98 -99 -100 0
21 101 102 103 -104 0
21 101 102 -103 104 0
21 101 -102 103 104 0
21 101 -102 -103 -104 0
21 -101 102 103 104 0
21 -101 102 -103 -104 0
21 -101 -102 103 -104 0
21 -101 -102 -103 104 0
-21 101 102 103 104 0
-21 101 102 -103 -104 0
-21 101 -102 103 -104 0
-21 101 -102 -103 104 0
-21 -101 102 103 -104 0
-21 -101 102 -103 104 0
-21 -101 -102 103 104 0
-21 -101 -102 -103 -104 0
7 80 105 106 -107 0
7 80 105 -106 107 0
7 80 -105 106 107 0
7 80 -105 -106 -107 0
7 -80 105 106 107 0
7 -80 105 -106 -107 0
7 -80 -105 106 -107 0
7 -80 -105 -106 107 0
-7 80 105 106 107 0
-7 80 105 -106 -107 0
-7 80 -105 106 -107 0
-7 80 -105 -106 107 0
-7 -80 105 106 -107 0
-7 -80 105 -106 107 0
-7 -80 -105 106 107 0
-7 -80 -105 -106 -107 0
59 67 108 109 110 0
59 67 108 -109 -110 0
59 67 -108 109 -110 0
59 67 -108 -109 110 0
59 -67 108 109 -110 0
59 -67 108 -109 110 0
59 -67 -108 109 110 0
59 -67 -108 -109 -110 0
-59 67 108 109 -110 0
-59 67 108 -109 110 0
-59 67 -108 109 110 0
-59 67 -108 -109 -110 0
-59 -67 108 109 110 0
-59 -67 108 -109 -110 0
-59 -67 -108 109 -110 0
-59 -67 -108 -109 110 0
44 54 111 112 -113 0
44 54 111 -112 113 0
44 54 -111 112 113 0
44 54 -111 -112 -113 0
44 -54 111 112 113 0
44 -54 111 -112 -113 0
44 -54 -111 112 -113 0
44 -54 -111 -112 113 0
-44 54 111 112 113 0
-44 54 111 -112 -113 0
-44 54 -111 112 -113 0
-44 54 -111 -112 113 0
-44 -54 111 112 -113 0
-44 -54 111 -112 113 0
-44 -54 -111 112 113 0
-44 -54 -111 -112 -113 0
8 16 55 114 115 0
8 16 55 -114 -115 0
8 16 -55 114 -115 0
8 16 -55 -114 115 0
8 -16 55 114 -115 0
8 -16 55 -114 115 0
8 -16 -55 114 115 0
8 -16 -55 -114 -115 0
-8 16 55 114 -115 0
-8 16 55 -114 115 0
-8 16 -55 114 115 0
-8 16 -55 -114 -115 0
-8 -16 55 114 115 0
-8 -16 55 -114 -115 0
-8 -16 -55 114 -115 0
-8 -16 -55 -114 115 0
9 68 70 108 -116 0
9 68 70 -108 116 0
9 68 -70 108 116 0
9 68 -70 -108 -116 0
9 -68 70 108 116 0
9 -68 70 -108 -116 0
9 -68 -70 108 -116 0
9 -68 -70 -108 116 0
-9 68 70 108 116 0
-9 68 70 -108 -116 0
-9 68 -70 108 -116 0
-9 68 -70 -108 116 0
-9 -68 70 108 -116 0
-9 -68 70 -108 116 0
-9 -68 -70 108 116 0
-9 -68 -70 -108 -116 0
117 118 119 120 -121 0
117 118 119 -120 121 0
117 118 -119 120 121 0
117 118 -119 -120 -121 0
117 -118 119 120 121 0
117 -118 119 -120 -121 0
117 -118 -119 120 -121 0
117 -118 -119 -120 121 0
-117 118 119 120 121 0
-117 118 119 -120 -121 0
-117 118 -119 120 -121 0
-117 118 -119 -120 121 0
-117 -118 119 120 -121 0
-117 -118 119 -120 121 0
-117 -118 -119 120 121 0
-117 -118 -119 -120 -121 0
111 122 123 124 125 0
111 122 123 -124 -125 0
111 122 -123 124 -125 0
111 122 -123 -124 125 0
111 -122 123 124 -125 0
111 -122 123 -124 125 0
111 -122 -123 124 125 0
111 -122 -123 -124 -125 0
-111 122 123 124 -125 0
-111 122 123 -124 125 0
-111 122 -123 124 125 0
-111 122 -123 -124 -125 0
-111 -122 123 124 125 0
-111 -122 123 -124 -125 0
-111 -122 -123 124 -125 0
-111 -122 -123 -124 125 0
35 85 126 127 128 0
35 85 126 -127 -128 0
35 85 -126 127 -128 0
35 85 -126 -127 128 0
35 -85 126 127 -128 0
35 -85 126 -127 128 0
35 -85 -126 127 128 0
35 -85 -126 -127 -128 0
-35 85 126 127 -128 0
-35 85 126 -127 128 0
-35 85 -126 127 128 0
-35 85 -126 -127 -128 0
-35 -85 126 127 128 0
-35 -85 126 -127 -128 0
-35 -85 -126 127 -128 0
-35 -85 -126 -127 128 0
97 105 129 130 -131 0
97 105 129 -130 131 0
97 105 -129 130 131 0
97 105 -129 -130 -131 0
97 -105 129 130 131 0
97 -105 129 -130 -131 0
97 -105 -129 130 -131 0
97 -105 -129 -130 131 0
-97 105 129 130 131 0
-97 105 129 -130 -131 0
-97 105 -129 130 -131 0
-97 105 -129 -130 131 0
-97 -105 129 130 -131 0
-97 -105 129 -130 131 0
-97 -105 -129 130 131 0
-97 -105 -129 -130 -131 0
11 17 93 109 132 0
11 17 93 -109 -132 0
11 17 -93 109 -132 0
11 17 -93 -109 132 0
11 -17 93 109 -132 0
11 -17 93 -109 132 0
11 -17 -93 109 132 0
11 -17 -93 -109 -132 0
-11 17 93 109 -132 0
-11 17 93 -109 132 0
-11 17 -93 109 132 0
-11 17 -93 -109 -132 0
-11 -17 93 109 132 0
-11 -17 93 -109 -132 0
-11 -17 -93 109 -132 0
-11 -17 -93 -109 132 0
12 117 133 134 -135 0
12 117 133 -134 135 0
12 117 -133 134 135 0
12 117 -133 -134 -135 0
12 -117 133 134 135 0
12 -117 133 -134 -135 0
12 -117 -133 134 -135 0
12 -117 -133 -134 135 0
-12 117 133 134 135 0
-12 117 133 -134 -135 0
-12 117 -133 134 -135 0
-12 117 -133 -134 135 0
-12 -117 133 134 -135 0
-12 -117 133 -134 135 0
-12 -117 -133 134 135 0
-12 -117 -133 -134 -135 0
13 136 137 138 -139 0
13 136 137 -138 139 0
13 136 -137 138 139 0
13 136 -137 -138 -139 0
13 -136 137 138 139 0
13 -136 137 -138 -139 0
13 -136 -137 138 -139 0
13 -136 -137 -138 139 0
-13 136 137 138 139 0
-13 136 137 -138 -139 0
-13 136 -137 138 -139 0
-13 136 -137 -138 139 0
-13 -136 137 138 -139 0
-13 -136 137 -138 139 0
-13 -136 -137 138 139 0
-13 -136 -137 -138 -139 0
25 86 140 141 142 0
25 86 140 -141 -142 0
25 86 -140 141 -142 0
25 86 -140 -141 142 0
25 -86 140 141 -142 0
25 -86 140 -141 142 0
25 -86 -140 141 142 0
25 -86 -140 -141 -142 0
-25 86 140 141 -142 0
-25 86 140 -141 142 0
-25 86 -140 141 142 0
-25 86 -140 -141 -142 0
-25 -86 140 141 142 0
-25 -86 140 -141 -142 0
-25 -86 -140 141 -142 0
-25 -86 -140 -141 142 0
31 63 143 144 145 0
31 63 143 -144 -145 0
31 63 -143 144 -145 0
31 63 -143 -144 145 0
31 -63 143 144 -145 0
31 -63 143 -144 145 0
31 -63 -143 144 145 0
31 -63 -143 -144 -145 0
-31 63 143 144 -145 0
-31 63 143 -144 145 0
-31 63 -143 144 145 0
-31 63 -143 -144 -145 0
-31 -63 143 144 145 0
-31 -63 143 -144 -145 0
-31 -63 -143 144 -145 0
-31 -63 -143 -144 145 0
2 22 32 45 -146 0
2 22 32 -45 146 0
2 22 -32 45 146 0
2 22 -32 -45 -146 0
2 -22 32 45 146 0
2 -22 32 -45 -146 0
2 -22 -32 45 -146 0
2 -22 -32 -45 146 0
-2 22 32 45 146 0
-2 22 32 -45 -146 0
-2 22 -32 45 -146 0
-2 22 -32 -45 146 0
-2 -22 32 45 -146 0
-2 -22 32 -45 146 0
-2 -22 -32 45 146 0
-2 -22 -32 -45 -146 0
89 129 146 147 148 0
89 129 146 -147 -148 0
89 129 -146 147 -148 0
89 129 -146 -147 148 0
89 -129 146 147 -148 0
89 -129 146 -147 148 0
89 -129 -146 147 148 0
89 -129 -146 -147 -148 0
-89 129 146 147 -148 0
-89 129 146 -147 148 0
-89 129 -146 147 148 0
-89 129 -146 -147 -148 0
-89 -129 146 147 148 0
-89 -129 146 -147 -148 0
-89 -129 -146 147 -148 0
-89 -129 -146 -147 148 0
149 150 151 152 -153 0
149 150 151 -152 153 0
149 150 -151 152 153 0
149 150 -151 -152 -153 0
149 -150 151 152 153 0
149 -150 151 -152 -153 0
149 -150 -151 152 -153 0
149 -150 -151 -152 153 0
-149 150 151 152 153 0
-149 150 151 -152 -153 0
-149 150 -151 152 -153 0
-149 150 -151 -152 153 0
-149 -150 151 152 -153 0
-149 -150 151 -152 153 0
-149 -150 -151 152 153 0
-149 -150 -151 -152 -153 0
87 94 126 154 -155 0
87 94 126 -154 155 0
87 94 -126 154 155 0
87 94 -126 -154 -155 0
87 -94 126 154 155 0
87 -94 126 -154 -155 0
87 -94 -126 154 -155 0
87 -94 -126 -154 155 0
-87 94 126 154 155 0
-87 94 126 -154 -155 0
-87 94 -126 154 -155 0
-87 94 -126 -154 155 0
-87 -94 126 154 -155 0
-87 -94 126 -154 155 0
-87 -94 -126 154 155 0
-87 -94 -126 -154 -155 0
60 140 143 156 157 0
60 140 143 -156 -157 0
60 140 -143 156 -157 0
60 140 -143 -156 157 0
60 -140 143 156 -157 0
60 -140 143 -156 157 0
60 -140 -143 156 157 0
60 -140 -143 -156 -157 0
-60 140 143 156 -157 0
-60 140 143 -156 157 0
-60 140 -143 156 157 0
-60 140 -143 -156 -157 0
-60 -140 143 156 157 0
-60 -140 143 -156 -157 0
-60 -140 -143 156 -157 0
-60 -140 -143 -156 157 0
116 127 158 159 -160 0
116 127 158 -159 160 0
116 127 -158 159 160 0
116 127 -158 -159 -160 0
116 -127 158 159 160 0
116 -127 158 -159 -160 0
116 -127 -158 159 -160 0
116 -127 -158 -159 160 0
-116 127 158 159 160 0
-116 127 158 -159 -160 0
-116 127 -158 159 -160 0
-116 127 -158 -159 160 0
-116 -127 158 159 -160 0
-116 -127 158 -159 160 0
-116 -127 -158 159 160 0
-116 -127 -158 -159 -160 0
33 141 144 161 162 0
33 141 144 -161 -162 0
33 141 -144 161 -162 0
33 141 -144 -161 162 0
33 -141 144 161 -162 0
33 -141 144 -161 162 0
33 -141 -144 161 162 0
33 -141 -144 -161 -162 0
-33 141 144 161 -162 0
-33 141 144 -161 162 0
-33 141 -144 161 162 0
-33 141 -144 -161 -162 0
-33 -141 144 161 162 0
-33 -141 144 -161 -162 0
-33 -141 -144 161 -162 0
-33 -141 -144 -161 162 0
51 56 118 163 164 0
51 56 118 -163 -164 0
51 56 -118 163 -164 0
51 56 -118 -163 164 0
51 -56 118 163 -164 0
51 -56 118 -163 164 0
51 -56 -118 163 164 0
51 -56 -118 -163 -164 0
-51 56 118 163 -164 0
-51 56 118 -163 164 0
-51 56 -118 163 164 0
-51 56 -118 -163 -164 0
-51 -56 118 163 164 0
-51 -56 118 -163 -164 0
-51 -56 -118 163 -164 0
-51 -56 -118 -163 164 0
40 165 166 167 -168 0
40 165 166 -167 168 0
40 165 -166 167 168 0
40 165 -166 -167 -168 0
40 -165 166 167 168 0
40 -165 166 -167 -168 0
40 -165 -166 167 -168 0
40 -165 -166 -167 168 0
-40 165 166 167 168 0
-40 165 166 -167 -168 0
-40 165 -166 167 -168 0
-40 165 -166 -167 168 0
-40 -165 166 167 -168 0
-40 -165 166 -167 168 0
-40 -165 -166 167 168 0
-40 -165 -166 -167 -168 0
18 122 169 170 171 0
18 122 169 -170 -171 0
18 122 -169 170 -171 0
18 122 -169 -170 171 0
18 -122 169 170 -171 0
18 -122 169 -170 171 0
18 -122 -169 170 171 0
18 -122 -169 -170 -171 0
-18 122 169 170 -171 0
-18 122 169 -170 171 0
-18 122 -169 170 171 0
-18 122 -169 -170 -171 0
-18 -122 169 170 171 0
-18 -122 169 -170 -171 0
-18 -122 -169 170 -171 0
-18 -122 -169 -170 171 0
142 165 172 173 174 0
142 165 172 -173 -174 0
142 165 -172 173 -174 0
142 165 -172 -173 174 0
142 -165 172 173 -174 0
142 -165 172 -173 174 0
142 -165 -172 173 174 0
142 -165 -172 -173 -174 0
-142 165 172 173 -174 0
-142 165 172 -173 174 0
-142 165 -172 173 174 0
-142 165 -172 -173 -174 0
-142 -165 172 173 174 0
-142 -165 172 -173 -174 0
-142 -165 -172 173 -174 0
-142 -165 -172 -173 174 0
69 90 175 176 177 0
69 90 175 -176 -177 0
69 90 -175 176 -177 0
69 90 -175 -176 177 0
69 -90 175 176 -177 0
69 -90 175 -176 177 0
69 -90 -175 176 177 0
69 -90 -175 -176 -177 0
-69 90 175 176 -177 0
-69 90 175 -176 177 0
-69 90 -175 176 177 0
-69 90 -175 -176 -177 0
-69 -90 175 176 177 0
-69 -90 175 -176 -177 0
-69 -90 -175 176 -177 0
-69 -90 -175 -176 177 0
119 166 178 179 180 0
119 166 178 -179 -180 0
119 166 -178 179 -180 0
119 166 -178 -179 180 0
119 -166 178 179 -180 0
119 -166 178 -179 180 0
119 -166 -178 179 180 0
119 -166 -178 -179 -180 0
-119 166 178 179 -180 0
-119 166 178 -179 180 0
-119 166 -178 179 180 0
-119 166 -178 -179 -180 0
-119 -166 178 179 180 0
-119 -166 178 -179 -180 0
-119 -166 -178 179 -180 0
-119 -166 -178 -179 180 0
98 181 182 183 -184 0
98 181 182 -183 184 0
98 181 -182 183 184 0
98 181 -182 -183 -184 0
98 -181 182 183 184 0
98 -181 182 -183 -184 0
98 -181 -182 183 -184 0
98 -181 -182 -183 184 0
-98 181 182 183 184 0
-98 181 182 -183 -184 0
-98 181 -182 183 -184 0
-98 181 -182 -183 184 0
-98 -181 182 183 -184 0
-98 -181 182 -183 184 0
-98 -181 -182 183 184 0
-98 -181 -182 -183 -184 0
23 64 149 185 186 0
23 64 149 -185 -186 0
23 64 -149 185 -186 0
23 64 -149 -185 186 0
23 -64 149 185 -186 0
23 -64 149 -185 186 0
23 -64 -149 185 186 0
23 -64 -149 -185 -186 0
-23 64 149 185 -186 0
-23 64 149 -185 186 0
-23 64 -149 185 186 0
-23 64 -149 -185 -186 0
-23 -64 149 185 186 0
-23 -64 149 -185 -186 0
-23 -64 -149 185 -186 0
-23 -64 -149 -185 186 0
46 99 110 187 -188 0
46 99 110 -187 188 0
46 99 -110 187 188 0
46 99 -110 -187 -188 0
46 -99 110 187 188 0
46 -99 110 -187 -188 0
46 -99 -110 187 -188 0
46 -99 -110 -187 188 0
-46 99 110 187 188 0
-46 99 110 -187 -188 0
-46 99 -110 187 -188 0
-46 99 -110 -187 188 0
-46 -99 110 187 -188 0
-46 -99 110 -187 188 0
-46 -99 -110 187 188 0
-46 -99 -110 -187 -188 0
112 123 145 147 189 0
112 123 145 -147 -189 0
112 123 -145 147 -189 0
112 123 -145 -147 189 0
112 -123 145 147 -189 0
112 -123 145 -147 189 0
112 -123 -145 147 189 0
112 -123 -145 -147 -189 0
-112 123 145 147 -189 0
-112 123 145 -147 189 0
-112 123 -145 147 189 0
-112 123 -145 -147 -189 0
-112 -123 145 147 189 0
-112 -123 145 -147 -189 0
-112 -123 -145 147 -189 0
-112 -123 -145 -147 189 0
61 156 190 191 192 0
61 156 190 -191 -192 0
61 156 -190 191 -192 0
61 156 -190 -191 192 0
61 -156 190 191 -192 0
61 -156 190 -191 192 0
61 -156 -190 191 192 0
61 -156 -190 -191 -192 0
-61 156 190 191 -192 0
-61 156 190 -191 192 0
-61 156 -190 191 192 0
-61 156 -190 -191 -192 0
-61 -156 190 191 192 0
-61 -156 190 -191 -192 0
-61 -156 -190 191 -192 0
-61 -156 -190 -191 192 0
106 132 136 163 -193 0
106 132 136 -163 193 0
106 132 -136 163 193 0
106 132 -136 -163 -193 0
106 -132 136 163 193 0
106 -132 136 -163 -193 0
106 -132 -136 163 -193 0
106 -132 -136 -163 193 0
-106 132 136 163 193 0
-106 132 136 -163 -193 0
-106 132 -136 163 -193 0
-106 132 -136 -163 193 0
-106 -132 136 163 -193 0
-106 -132 136 -163 193 0
-106 -132 -136 163 193 0
-106 -132 -136 -163 -193 0
10 76 181 194 195 0
10 76 181 -194 -195 0
10 76 -181 194 -195 0
10 76 -181 -194 195 0
10 -76 181 194 -195 0
10 -76 181 -194 195 0
10 -76 -181 194 195 0
10 -76 -181 -194 -195 0
-10 76 181 194 -195 0
-10 76 181 -194 195 0
-10 76 -181 194 195 0
-10 76 -181 -194 -195 0
-10 -76 181 194 195 0
-10 -76 181 -194 -195 0
-10 -76 -181 194 -195 0
-10 -76 -181 -194 195 0
26 150 172 196 197 0
26 150 172 -196 -197 0
26 150 -172 196 -197 0
26 150 -172 -196 197 0
26 -150 172 196 -197 0
26 -150 172 -196 197 0
26 -150 -172 196 197 0
26 -150 -172 -196 -197 0
-26 150 172 196 -197 0
-26 150 172 -196 197 0
-26 150 -172 196 197 0
-26 150 -172 -196 -197 0
-26 -150 172 196 197 0
-26 -150 172 -196 -197 0
-26 -150 -172 196 -197 0
-26 -150 -172 -196 197 0
3 57 137 198 -199 0
3 57 137 -198 199 0
3 57 -137 198 199 0
3 57 -137 -198 -199 0
3 -57 137 198 199 0
3 -57 137 -198 -199 0
3 -57 -137 198 -199 0
3 -57 -137 -198 199 0
-3 57 137 198 199 0
-3 57 137 -198 -199 0
-3 57 -137 198 -199 0
-3 57 -137 -198 199 0
-3 -57 137 198 -199 0
-3 -57 137 -198 199 0
-3 -57 -137 198 199 0
-3 -57 -137 -198 -199 0
19 133 200 201 202 0
19 133 200 -201 -202 0
19 133 -200 201 -202 0
19 133 -200 -201 202 0
19 -133 200 201 -202 0
19 -133 200 -201 202 0
19 -133 -200 201 202 0
19 -133 -200 -201 -202 0
-19 133 200 201 -202 0
-19 133 200 -201 202 0
-19 133 -200 201 202 0
-19 133 -200 -201 -202 0
-19 -133 200 201 202 0
-19 -133 200 -201 -202 0
-19 -133 -200 201 -202 0
-19 -133 -200 -201 202 0
41 71 101 200 -203 0
41 71 101 -200 203 0
41 71 -101 200 203 0
41 71 -101 -200 -203 0
41 -71 101 200 203 0
41 -71 101 -200 -203 0
41 -71 -101 200 -203 0
41 -71 -101 -200 203 0
-41 71 101 200 203 0
-41 71 101 -200 -203 0
-41 71 -101 200 -203 0
-41 71 -101 -200 203 0
-41 -71 101 200 -203 0
-41 -71 101 -200 203 0
-41 -71 -101 200 203 0
-41 -71 -101 -200 -203 0
95 134 185 204 -205 0
95 134 185 -204 205 0
95 134 -185 204 205 0
95 134 -185 -204 -205 0
95 -134 185 204 205 0
95 -134 185 -204 -205 0
95 -134 -185 204 -205 0
95 -134 -185 -204 205 0
-95 134 185 204 205 0
-95 134 185 -204 -205 0
-95 134 -185 204 -205 0
-95 134 -185 -204 205 0
-95 -134 185 204 -205 0
-95 -134 185 -204 205 0
-95 -134 -185 204 205 0
-95 -134 -185 -204 -205 0
167 182 190 206 207 0
167 182 190 -206 -207 0
167 182 -190 206 -207 0
167 182 -190 -206 207 0
167 -182 190 206 -207 0
167 -182 190 -206 207 0
167 -182 -190 206 207 0
167 -182 -190 -206 -207 0
-167 182 190 206 -207 0
-167 182 190 -206 207 0
-167 182 -190 206 207 0
-167 182 -190 -206 -207 0
-167 -182 190 206 207 0
-167 -182 190 -206 -207 0
-167 -182 -190 206 -207 0
-167 -182 -190 -206 207 0
34 72 91 206 208 0
34 72 91 -206 -208 0
34 72 -91 206 -208 0
34 72 -91 -206 208 0
34 -72 91 206 -208 0
34 -72 91 -206 208 0
34 -72 -91 206 208 0
34 -72 -91 -206 -208 0
-34 72 91 206 -208 0
-34 72 91 -206 208 0
-34 72 -91 206 208 0
-34 72 -91 -206 -208 0
-34 -72 91 206 208 0
-34 -72 91 -206 -208 0
-34 -72 -91 206 -208 0
-34 -72 -91 -206 208 0
14 36 77 120 209 0
14 36 77 -120 -209 0
14 36 -77 120 -209 0
14 36 -77 -120 209 0
14 -36 77 120 -209 0
14 -36 77 -120 209 0
14 -36 -77 120 209 0
14 -36 -77 -120 -209 0
-14 36 77 120 -209 0
-14 36 77 -120 209 0
-14 36 -77 120 209 0
-14 36 -77 -120 -209 0
-14 -36 77 120 209 0
-14 -36 77 -120 -209 0
-14 -36 -77 120 -209 0
-14 -36 -77 -120 209 0
78 102 148 157 -210 0
78 102 148 -157 210 0
78 102 -148 157 210 0
78 102 -148 -157 -210 0
78 -102 148 157 210 0
78 -102 148 -157 -210 0
78 -102 -148 157 -210 0
78 -102 -148 -157 210 0
-78 102 148 157 210 0
-78 102 148 -157 -210 0
-78 102 -148 157 -210 0
-78 102 -148 -157 210 0
-78 -102 148 157 -210 0
-78 -102 148 -157 210 0
-78 -102 -148 157 210 0
-78 -102 -148 -157 -210 0
130 175 198 211 212 0
130 175 198 -211 -212 0
130 175 -198 211 -212 0
130 175 -198 -211 212 0
130 -175 198 211 -212 0
130 -175 198 -211 212 0
130 -175 -198 211 212 0
130 -175 -198 -211 -212 0
-130 175 198 211 -212 0
-130 175 198 -211 212 0
-130 175 -198 211 212 0
-130 175 -198 -211 -212 0
-130 -175 198 211 212 0
-130 -175 198 -211 -212 0
-130 -175 -198 211 -212 0
-130 -175 -198 -211 212 0
37 81 128 151 -199 0
37 81 128 -151 199 0
37 81 -128 151 199 0
37 81 -128 -151 -199 0
37 -81 128 151 199 0
37 -81 128 -151 -199 0
37 -81 -128 151 -199 0
37 -81 -128 -151 199 0
-37 81 128 151 199 0
-37 81 128 -151 -199 0
-37 81 -128 151 -199 0
-37 81 -128 -151 199 0
-37 -81 128 151 -199 0
-37 -81 128 -151 199 0
-37 -81 -128 151 199 0
-37 -81 -128 -151 -199 0
103 131 158 213 214 0
103 131 158 -213 -214 0
103 131 -158 213 -214 0
103 131 -158 -213 214 0
103 -131 158 213 -214 0
103 -131 158 -213 214 0
103 -131 -158 213 214 0
103 -131 -158 -213 -214 0
-103 131 158 213 -214 0
-103 131 158 -213 214 0
-103 131 -158 213 214 0
-103 131 -158 -213 -214 0
-103 -131 158 213 214 0
-103 -131 158 -213 -214 0
-103 -131 -158 213 -214 0
-103 -131 -158 -213 214 0
4 62 187 204 215 0
4 62 187 -204 -215 0
4 62 -187 204 -215 0
4 62 -187 -204 215 0
4 -62 187 204 -215 0
4 -62 187 -204 215 0
4 -62 -187 204 215 0
4 -62 -187 -204 -215 0
-4 62 187 204 -215 0
-4 62 187 -204 215 0
-4 62 -187 204 215 0
-4 62 -187 -204 -215 0
-4 -62 187 204 215 0
-4 -62 187 -204 -215 0
-4 -62 -187 204 -215 0
-4 -62 -187 -204 215 0
100 124 169 194 -216 0
100 124 169 -194 216 0
100 124 -169 194 216 0
100 124 -169 -194 -216 0
100 -124 169 194 216 0
100 -124 169 -194 -216 0
100 -124 -169 194 -216 0
100 -124 -169 -194 216 0
-100 124 169 194 216 0
-100 124 169 -194 -216 0
-100 124 -169 194 -216 0
-100 124 -169 -194 216 0
-100 -124 169 194 -216 0
-100 -124 169 -194 216 0
-100 -124 -169 194 216 0
-100 -124 -169 -194 -216 0
42 173 195 213 -217 0
42 173 195 -213 217 0
42 173 -195 213 217 0
42 173 -195 -213 -217 0
42 -173 195 213 217 0
42 -173 195 -213 -217 0
42 -173 -195 213 -217 0
42 -173 -195 -213 217 0
-42 173 195 213 217 0
-42 173 195 -213 -217 0
-42 173 -195 213 -217 0
-42 173 -195 -213 217 0
-42 -173 195 213 -217 0
-42 -173 195 -213 217 0
-42 -173 -195 213 217 0
-42 -173 -195 -213 -217 0
138 178 216 218 -219 0
138 178 216 -218 219 0
138 178 -216 218 219 0
138 178 -216 -218 -219 0
138 -178 216 218 219 0
138 -178 216 -218 -219 0
138 -178 -216 218 -219 0
138 -178 -216 -218 219 0
-138 178 216 218 219 0
-138 178 216 -218 -219 0
-138 178 -216 218 -219 0
-138 178 -216 -218 219 0
-138 -178 216 218 -219 0
-138 -178 216 -218 219 0
-138 -178 -216 218 219 0
-138 -178 -216 -218 -219 0
82 189 191 220 -221 0
82 189 191 -220 221 0
82 189 -191 220 221 0
82 189 -191 -220 -221 0
82 -189 191 220 221 0
82 -189 191 -220 -221 0
82 -189 -191 220 -221 0
82 -189 -191 -220 221 0
-82 189 191 220 221 0
-82 189 191 -220 -221 0
-82 189 -191 220 -221 0
-82 189 -191 -220 221 0
-82 -189 191 220 -221 0
-82 -189 191 -220 221 0
-82 -189 -191 220 221 0
-82 -189 -191 -220 -221 0
27 38 154 220 -222 0
27 38 154 -220 222 0
27 38 -154 220 222 0
27 38 -154 -220 -222 0
27 -38 154 220 222 0
27 -38 154 -220 -222 0
27 -38 -154 220 -222 0
27 -38 -154 -220 222 0
-27 38 154 220 222 0
-27 38 154 -220 -222 0
-27 38 -154 220 -222 0
-27 38 -154 -220 222 0
-27 -38 154 220 -222 0
-27 -38 154 -220 222 0
-27 -38 -154 220 222 0
-27 -38 -154 -220 -222 0
113 135 161 188 -201 0
113 135 161 -188 201 0
113 135 -161 188 201 0
113 135 -161 -188 -201 0
113 -135 161 188 201 0
113 -135 161 -188 -201 0
113 -135 -161 188 -201 0
113 -135 -161 -188 201 0
-113 135 161 188 201 0
-113 135 161 -188 -201 0
-113 135 -161 188 -201 0
-113 135 -161 -188 201 0
-113 -135 161 188 -201 0
-113 -135 161 -188 201 0
-113 -135 -161 188 201 0
-113 -135 -161 -188 -201 0
107 174 215 223 224 0
107 174 215 -223 -224 0
107 174 -215 223 -224 0
107 174 -215 -223 224 0
107 -174 215 223 -224 0
107 -174 215 -223 224 0
107 -174 -215 223 224 0
107 -174 -215 -223 -224 0
-107 174 215 223 -224 0
-107 174 215 -223 224 0
-107 174 -215 223 224 0
-107 174 -215 -223 -224 0
-107 -174 215 223 224 0
-107 -174 215 -223 -224 0
-107 -174 -215 223 -224 0
-107 -174 -215 -223 224 0
192 193 218 222 223 0
192 193 218 -222 -223 0
192 193 -218 222 -223 0
192 193 -218 -222 223 0
192 -193 218 222 -223 0
192 -193 218 -222 223 0
192 -193 -218 222 223 0
192 -193 -218 -222 -223 0
-192 193 218 222 -223 0
-192 193 218 -222 223 0
-192 193 -218 222 223 0
-192 193 -218 -222 -223 0
-192 -193 218 222 223 0
-192 -193 218 -222 -223 0
-192 -193 -218 222 -223 0
-192 -193 -218 -222 223 0
5 24 43 139 183 0
5 24 43 -139 -183 0
5 24 -43 139 -183 0
5 24 -43 -139 183 0
5 -24 43 139 -183 0
5 -24 43 -139 183 0
5 -24 -43 139 183 0
5 -24 -43 -139 -183 0
-5 24 43 139 -183 0
-5 24 43 -139 183 0
-5 24 -43 139 183 0
-5 24 -43 -139 -183 0
-5 -24 43 139 183 0
-5 -24 43 -139 -183 0
-5 -24 -43 139 -183 0
-5 -24 -43 -139 183 0
28 121 176 186 208 0
28 121 176 -186 -208 0
28 121 -176 186 -208 0
28 121 -176 -186 208 0
28 -121 176 186 -208 0
28 -121 176 -186 208 0
28 -121 -176 186 208 0
28 -121 -176 -186 -208 0
-28 121 176 186 -208 0
-28 121 176 -186 208 0
-28 121 -176 186 208 0
-28 121 -176 -186 -208 0
-28 -121 176 186 208 0
-28 -121 176 -186 -208 0
-28 -121 -176 186 -208 0
-28 -121 -176 -186 208 0
83 125 159 211 219 0
83 125 159 -211 -219 0
83 125 -159 211 -219 0
83 125 -159 -211 219 0
83 -125 159 211 -219 0
83 -125 159 -211 219 0
83 -125 -159 211 219 0
83 -125 -159 -211 -219 0
-83 125 159 211 -219 0
-83 125 159 -211 219 0
-83 125 -159 211 219 0
-83 125 -159 -211 -219 0
-83 -125 159 211 219 0
-83 -125 159 -211 -219 0
-83 -125 -159 211 -219 0
-83 -125 -159 -211 219 0
47 96 162 196 -212 0
47 96 162 -196 212 0
47 96 -162 196 212 0
47 96 -162 -196 -212 0
47 -96 162 196 212 0
47 -96 162 -196 -212 0
47 -96 -162 196 -212 0
47 -96 -162 -196 212 0
-47 96 162 196 212 0
-47 96 162 -196 -212 0
-47 96 -162 196 -212 0
-47 96 -162 -196 212 0
-47 -96 162 196 -212 0
-47 -96 162 -196 212 0
-47 -96 -162 196 212 0
-47 -96 -162 -196 -212 0
65 73 79 179 205 0
65 73 79 -179 -205 0
65 73 -79 179 -205 0
65 73 -79 -179 205 0
65 -73 79 179 -205 0
65 -73 79 -179 205 0
65 -73 -79 179 205 0
65 -73 -79 -179 -205 0
-65 73 79 179 -205 0
-65 73 79 -179 205 0
-65 73 -79 179 205 0
-65 73 -79 -179 -205 0
-65 -73 79 179 205 0
-65 -73 79 -179 -205 0
-65 -73 -79 179 -205 0
-65 -73 -79 -179 205 0
52 152 155 202 -225 0
52 152 155 -202 225 0
52 152 -155 202 225 0
52 152 -155 -202 -225 0
52 -152 155 202 225 0
52 -152 155 -202 -225 0
52 -152 -155 202 -225 0
52 -152 -155 -202 225 0
-52 152 155 202 225 0
-52 152 155 -202 -225 0
-52 152 -155 202 -225 0
-52 152 -155 -202 225 0
-52 -152 155 202 -225 0
-52 -152 155 -202 225 0
-52 -152 -155 202 225 0
-52 -152 -155 -202 -225 0
74 153 170 180 -203 0
74 153 170 -180 203 0
74 153 -170 180 203 0
74 153 -170 -180 -203 0
74 -153 170 180 203 0
74 -153 170 -180 -203 0
74 -153 -170 180 -203 0
74 -153 -170 -180 203 0
-74 153 170 180 203 0
-74 153 170 -180 -203 0
-74 153 -170 180 -203 0
-74 153 -170 -180 203 0
-74 -153 170 180 -203 0
-74 -153 170 -180 203 0
-74 -153 -170 180 203 0
-74 -153 -170 -180 -203 0
160 168 177 217 225 0
160 168 177 -217 -225 0
160 168 -177 217 -225 0
160 168 -177 -217 225 0
160 -168 177 217 -225 0
160 -168 177 -217 225 0
160 -168 -177 217 225 0
160 -168 -177 -217 -225 0
-160 168 177 217 -225 0
-160 168 177 -217 225 0
-160 168 -177 217 225 0
-160 168 -177 -217 -225 0
-160 -168 177 217 225 0
-160 -168 177 -217 -225 0
-160 -168 -177 217 -225 0
-160 -168 -177 -217 225 0
39 66 84 209 -221 0
39 66 84 -209 221 0
39 66 -84 209 221 0
39 66 -84 -209 -221 0
39 -66 84 209 221 0
39 -66 84 -209 -221 0
39 -66 -84 209 -221 0
39 -66 -84 -209 221 0
-39 66 84 209 221 0
-39 66 84 -209 -221 0
-39 66 -84 209 -221 0
-39 66 -84 -209 221 0
-39 -66 84 209 -221 0
-39 -66 84 -209 221 0
-39 -66 -84 209 221 0
-39 -66 -84 -209 -221 0
48 92 104 114 224 0
48 92 104 -114 -224 0
48 92 -104 114 -224 0
48 92 -104 -114 224 0
48 -92 104 114 -224 0
48 -92 104 -114 224 0
48 -92 -104 114 224 0
48 -92 -104 -114 -224 0
-48 92 104 114 -224 0
-48 92 104 -114 224 0
-48 92 -104 114 224 0
-48 92 -104 -114 -224 0
-48 -92 104 114 224 0
-48 -92 104 -114 -224 0
-48 -92 -104 114 -224 0
-48 -92 -104 -114 224 0
88 115 164 184 214 0
88 115 164 -184 -214 0
88 115 -164 184 -214 0
88 115 -164 -184 214 0
88 -115 164 184 -214 0
88 -115 164 -184 214 0
88 -115 -164 184 214 0
88 -115 -164 -184 -214 0
-88 115 164 184 -214 0
-88 115 164 -184 214 0
-88 115 -164 184 214 0
-88 115 -164 -184 -214 0
-88 -115 164 184 214 0
-88 -115 164 -184 -214 0
-88 -115 -164 184 -214 0
-88 -115 -164 -184 214 0
29 171 197 207 -210 0
29 171 197 -207 210 0
29 171 -197 207 210 0
29 171 -197 -207 -210 0
29 -171 197 207 210 0
29 -171 197 -207 -210 0
29 -171 -197 207 -210 0
29 -171 -197 -207 210 0
-29 171 197 207 210 0
-29 171 197 -207 -210 0
-29 171 -197 207 -210 0
-29 171 -197 -207 210 0
-29 -171 197 207 -210 0
-29 -171 197 -207 210 0
-29 -171 -197 207 210 0
-29 -171 -197 -207 -210 0
